param n := 2;

param m := 2;

param K := 500;

param a :=
1 	 0.401480
2 	 0.317384
;
 param A :=
[1, *, *]:  1	2	:=
1	0.243839	0.947604	
2	-0.139505	0.355602	

[2, *, *]:  1	2	:=
1	-0.602860	-0.313308	
2	-0.146598	0.595278	
;